c nombre: 54
c densidad: 0.5
p edges 60 891
e 1 3
e 1 5
e 1 8
e 1 11
e 1 12
e 1 13
e 1 14
e 1 16
e 1 19
e 1 20
e 1 23
e 1 25
e 1 27
e 1 30
e 1 33
e 1 34
e 1 36
e 1 38
e 1 39
e 1 40
e 1 41
e 1 42
e 1 43
e 1 46
e 1 48
e 1 50
e 1 54
e 1 55
e 1 56
e 1 58
e 1 60
e 2 5
e 2 9
e 2 10
e 2 11
e 2 12
e 2 14
e 2 16
e 2 19
e 2 20
e 2 21
e 2 22
e 2 24
e 2 26
e 2 27
e 2 29
e 2 30
e 2 31
e 2 32
e 2 33
e 2 37
e 2 38
e 2 39
e 2 42
e 2 43
e 2 44
e 2 47
e 2 48
e 2 54
e 2 55
e 2 57
e 2 58
e 2 59
e 3 4
e 3 8
e 3 10
e 3 14
e 3 15
e 3 17
e 3 19
e 3 20
e 3 21
e 3 23
e 3 25
e 3 26
e 3 29
e 3 30
e 3 31
e 3 32
e 3 35
e 3 36
e 3 38
e 3 41
e 3 43
e 3 44
e 3 48
e 3 50
e 3 53
e 3 56
e 3 57
e 3 58
e 3 60
e 4 7
e 4 8
e 4 14
e 4 15
e 4 16
e 4 19
e 4 22
e 4 23
e 4 24
e 4 27
e 4 31
e 4 34
e 4 35
e 4 37
e 4 38
e 4 40
e 4 41
e 4 43
e 4 44
e 4 46
e 4 47
e 4 49
e 4 53
e 4 55
e 4 58
e 5 7
e 5 10
e 5 12
e 5 14
e 5 15
e 5 17
e 5 20
e 5 22
e 5 24
e 5 25
e 5 27
e 5 28
e 5 31
e 5 35
e 5 36
e 5 40
e 5 42
e 5 45
e 5 46
e 5 47
e 5 50
e 5 51
e 5 55
e 5 56
e 5 57
e 5 58
e 5 59
e 5 60
e 6 11
e 6 12
e 6 14
e 6 17
e 6 19
e 6 20
e 6 21
e 6 23
e 6 25
e 6 26
e 6 27
e 6 28
e 6 31
e 6 42
e 6 43
e 6 44
e 6 45
e 6 47
e 6 50
e 6 52
e 6 53
e 6 54
e 6 56
e 6 57
e 7 9
e 7 11
e 7 14
e 7 18
e 7 19
e 7 23
e 7 27
e 7 30
e 7 33
e 7 34
e 7 36
e 7 37
e 7 40
e 7 43
e 7 44
e 7 45
e 7 49
e 7 50
e 7 56
e 7 59
e 7 60
e 8 9
e 8 10
e 8 13
e 8 17
e 8 19
e 8 22
e 8 23
e 8 25
e 8 27
e 8 30
e 8 32
e 8 33
e 8 34
e 8 37
e 8 39
e 8 40
e 8 43
e 8 44
e 8 45
e 8 46
e 8 52
e 8 53
e 8 55
e 8 56
e 9 11
e 9 12
e 9 13
e 9 14
e 9 20
e 9 21
e 9 23
e 9 24
e 9 25
e 9 26
e 9 27
e 9 28
e 9 29
e 9 30
e 9 33
e 9 36
e 9 38
e 9 39
e 9 40
e 9 41
e 9 42
e 9 44
e 9 47
e 9 48
e 9 49
e 9 51
e 9 52
e 9 56
e 9 57
e 9 59
e 9 60
e 10 12
e 10 14
e 10 17
e 10 19
e 10 22
e 10 23
e 10 26
e 10 27
e 10 30
e 10 34
e 10 36
e 10 37
e 10 39
e 10 42
e 10 45
e 10 49
e 10 52
e 10 53
e 10 59
e 10 60
e 11 12
e 11 14
e 11 15
e 11 16
e 11 22
e 11 23
e 11 24
e 11 25
e 11 26
e 11 30
e 11 34
e 11 38
e 11 39
e 11 41
e 11 43
e 11 44
e 11 45
e 11 46
e 11 50
e 11 51
e 11 57
e 11 58
e 11 59
e 12 14
e 12 15
e 12 17
e 12 19
e 12 21
e 12 25
e 12 28
e 12 29
e 12 30
e 12 31
e 12 35
e 12 36
e 12 37
e 12 38
e 12 41
e 12 43
e 12 45
e 12 48
e 12 51
e 12 53
e 12 58
e 12 59
e 13 15
e 13 16
e 13 17
e 13 18
e 13 23
e 13 24
e 13 25
e 13 26
e 13 28
e 13 29
e 13 30
e 13 32
e 13 33
e 13 35
e 13 36
e 13 38
e 13 41
e 13 46
e 13 47
e 13 48
e 13 49
e 13 50
e 13 52
e 13 55
e 13 57
e 13 59
e 13 60
e 14 15
e 14 18
e 14 19
e 14 20
e 14 21
e 14 22
e 14 23
e 14 25
e 14 26
e 14 28
e 14 29
e 14 30
e 14 31
e 14 32
e 14 35
e 14 36
e 14 37
e 14 38
e 14 39
e 14 40
e 14 41
e 14 42
e 14 44
e 14 45
e 14 47
e 14 48
e 14 49
e 14 51
e 14 52
e 14 55
e 14 56
e 14 57
e 14 59
e 14 60
e 15 16
e 15 21
e 15 24
e 15 25
e 15 28
e 15 30
e 15 33
e 15 40
e 15 41
e 15 43
e 15 47
e 15 48
e 15 49
e 15 50
e 15 51
e 15 53
e 15 56
e 15 57
e 15 59
e 16 20
e 16 21
e 16 22
e 16 24
e 16 25
e 16 28
e 16 29
e 16 30
e 16 32
e 16 34
e 16 36
e 16 37
e 16 40
e 16 41
e 16 43
e 16 45
e 16 46
e 16 48
e 16 49
e 16 50
e 16 51
e 16 53
e 16 54
e 16 56
e 16 58
e 16 59
e 16 60
e 17 18
e 17 19
e 17 20
e 17 21
e 17 23
e 17 24
e 17 27
e 17 29
e 17 31
e 17 32
e 17 33
e 17 36
e 17 38
e 17 40
e 17 41
e 17 46
e 17 47
e 17 49
e 17 51
e 17 53
e 17 54
e 17 57
e 17 60
e 18 21
e 18 23
e 18 24
e 18 25
e 18 26
e 18 27
e 18 29
e 18 32
e 18 34
e 18 35
e 18 36
e 18 40
e 18 41
e 18 42
e 18 43
e 18 44
e 18 46
e 18 47
e 18 52
e 18 53
e 18 54
e 18 55
e 18 57
e 19 20
e 19 21
e 19 22
e 19 23
e 19 26
e 19 29
e 19 31
e 19 32
e 19 34
e 19 35
e 19 36
e 19 37
e 19 43
e 19 45
e 19 46
e 19 47
e 19 50
e 19 51
e 19 56
e 19 58
e 20 25
e 20 28
e 20 31
e 20 38
e 20 41
e 20 46
e 20 47
e 20 48
e 20 49
e 20 50
e 20 51
e 20 54
e 20 56
e 20 57
e 20 58
e 20 60
e 21 22
e 21 27
e 21 30
e 21 31
e 21 32
e 21 34
e 21 38
e 21 40
e 21 41
e 21 43
e 21 44
e 21 46
e 21 50
e 21 51
e 21 53
e 21 54
e 21 55
e 21 57
e 21 59
e 22 25
e 22 29
e 22 34
e 22 36
e 22 37
e 22 39
e 22 41
e 22 42
e 22 46
e 22 49
e 22 54
e 22 55
e 22 58
e 22 60
e 23 26
e 23 32
e 23 33
e 23 36
e 23 38
e 23 41
e 23 43
e 23 44
e 23 45
e 23 52
e 23 53
e 23 58
e 23 59
e 23 60
e 24 26
e 24 28
e 24 29
e 24 30
e 24 31
e 24 38
e 24 39
e 24 42
e 24 46
e 24 53
e 24 54
e 24 56
e 24 57
e 24 59
e 24 60
e 25 27
e 25 28
e 25 30
e 25 31
e 25 32
e 25 34
e 25 35
e 25 37
e 25 38
e 25 39
e 25 41
e 25 43
e 25 45
e 25 46
e 25 49
e 25 52
e 25 55
e 25 56
e 25 60
e 26 28
e 26 29
e 26 31
e 26 34
e 26 35
e 26 36
e 26 37
e 26 38
e 26 41
e 26 42
e 26 45
e 26 46
e 26 48
e 26 49
e 26 50
e 26 54
e 26 57
e 27 28
e 27 31
e 27 32
e 27 34
e 27 36
e 27 38
e 27 40
e 27 41
e 27 43
e 27 44
e 27 45
e 27 46
e 27 49
e 27 51
e 27 52
e 27 53
e 27 55
e 27 57
e 27 58
e 27 59
e 27 60
e 28 30
e 28 32
e 28 34
e 28 38
e 28 41
e 28 42
e 28 44
e 28 49
e 28 50
e 28 52
e 28 54
e 28 55
e 28 56
e 28 57
e 28 58
e 29 32
e 29 33
e 29 36
e 29 38
e 29 40
e 29 41
e 29 42
e 29 43
e 29 47
e 29 48
e 29 50
e 29 52
e 29 53
e 29 55
e 29 57
e 30 31
e 30 32
e 30 35
e 30 41
e 30 42
e 30 43
e 30 44
e 30 47
e 30 48
e 30 50
e 30 53
e 30 54
e 30 57
e 30 59
e 31 33
e 31 35
e 31 36
e 31 38
e 31 39
e 31 42
e 31 44
e 31 45
e 31 46
e 31 47
e 31 49
e 31 50
e 31 52
e 31 53
e 31 56
e 31 58
e 31 59
e 32 33
e 32 35
e 32 42
e 32 43
e 32 45
e 32 48
e 32 51
e 32 52
e 32 53
e 32 54
e 32 56
e 32 58
e 32 60
e 33 35
e 33 36
e 33 38
e 33 39
e 33 44
e 33 47
e 33 48
e 33 50
e 33 51
e 33 52
e 33 53
e 33 54
e 33 55
e 33 56
e 33 57
e 33 58
e 34 35
e 34 39
e 34 42
e 34 48
e 34 50
e 34 51
e 34 52
e 34 60
e 35 37
e 35 39
e 35 40
e 35 42
e 35 43
e 35 44
e 35 47
e 35 48
e 35 52
e 35 54
e 35 55
e 35 56
e 35 60
e 36 37
e 36 39
e 36 40
e 36 41
e 36 42
e 36 45
e 36 46
e 36 47
e 36 50
e 36 51
e 36 52
e 36 53
e 36 54
e 36 55
e 36 57
e 36 58
e 36 59
e 36 60
e 37 40
e 37 41
e 37 42
e 37 43
e 37 49
e 37 50
e 37 51
e 37 53
e 37 55
e 37 56
e 37 57
e 37 58
e 37 59
e 38 39
e 38 42
e 38 44
e 38 45
e 38 46
e 38 47
e 38 49
e 38 51
e 38 52
e 38 53
e 38 56
e 38 58
e 38 60
e 39 43
e 39 44
e 39 45
e 39 46
e 39 47
e 39 50
e 39 53
e 39 55
e 39 56
e 39 57
e 39 58
e 39 59
e 40 41
e 40 44
e 40 46
e 40 57
e 40 59
e 41 42
e 41 45
e 41 48
e 41 49
e 41 50
e 41 54
e 41 57
e 42 45
e 42 46
e 42 47
e 42 50
e 42 53
e 42 56
e 42 57
e 42 59
e 42 60
e 43 44
e 43 45
e 43 48
e 43 49
e 43 50
e 43 52
e 43 53
e 43 55
e 43 57
e 43 59
e 44 45
e 44 46
e 44 47
e 44 48
e 44 49
e 44 53
e 44 54
e 44 55
e 44 56
e 44 57
e 44 59
e 45 46
e 45 47
e 45 49
e 45 50
e 45 52
e 45 58
e 46 48
e 46 50
e 46 51
e 46 54
e 46 56
e 46 57
e 46 58
e 46 59
e 46 60
e 47 50
e 47 53
e 47 54
e 47 55
e 47 59
e 47 60
e 48 51
e 48 52
e 48 54
e 48 58
e 48 59
e 49 50
e 49 51
e 49 52
e 49 55
e 49 56
e 49 58
e 49 59
e 49 60
e 50 52
e 50 55
e 50 56
e 50 57
e 50 59
e 50 60
e 51 52
e 51 53
e 51 56
e 51 57
e 51 58
e 52 53
e 52 54
e 52 55
e 52 60
e 53 55
e 53 56
e 53 57
e 53 58
e 54 55
e 54 56
e 54 58
e 55 56
e 55 58
e 55 60
e 56 58
e 56 60
e 57 60
e 58 60
e 59 60
